100
128
16
18
4
43
2
19
12
12
53
44
49
50
48
12
1
19
38
54
31
44
38
21
6
50
30
44
39
34
30
14
47
37
43
34
59
39
40
43
54
35
1
2
40
16
39
51
1
19
40
1
23
59
30
26
18
18
7
41
57
37
46
31
46
54
4
15
61
37
46
18
53
2
18
17
29
28
3
47
3
52
16
23
26
1
25
1
15
2
46
1
38
24
1
19
25
39
1
11
1
39